(set-logic QF_BV)
(declare-fun _substvar_719_ () (_ BitVec 17))
(declare-fun _substvar_727_ () (_ BitVec 1))
(declare-fun _substvar_1693_ () (_ BitVec 4))
(declare-fun _substvar_1665_ () (_ BitVec 4))
(declare-fun _substvar_589_ () (_ BitVec 4))
(declare-fun _substvar_637_ () (_ BitVec 4))
(declare-fun _substvar_700_ () (_ BitVec 4))
(declare-fun _substvar_1445_ () Bool)
(declare-fun _substvar_1175_ () Bool)
(declare-fun _substvar_1113_ () Bool)
(declare-fun _substvar_725_ () (_ BitVec 1))
(declare-fun _substvar_703_ () (_ BitVec 4))
(declare-fun _substvar_641_ () (_ BitVec 4))
(declare-fun _substvar_1691_ () (_ BitVec 4))
(declare-fun _substvar_640_ () (_ BitVec 17))
(declare-fun _substvar_731_ () (_ BitVec 1))
(declare-fun _substvar_585_ () (_ BitVec 4))
(declare-fun _substvar_706_ () (_ BitVec 4))
(declare-fun _substvar_685_ () (_ BitVec 4))
(declare-fun _substvar_1695_ () (_ BitVec 4))
(declare-fun _substvar_734_ () (_ BitVec 4))
(declare-fun _substvar_693_ () (_ BitVec 4))
(declare-fun _substvar_591_ () (_ BitVec 4))
(declare-fun _substvar_730_ () (_ BitVec 4))
(declare-fun _substvar_638_ () (_ BitVec 4))
(declare-fun _substvar_736_ () (_ BitVec 1))
(declare-fun _substvar_357_ () (_ BitVec 4))
(declare-fun _substvar_1669_ () (_ BitVec 4))
(assert (let ((?v_8 (= _substvar_638_ _substvar_637_)) (?v_1 (= _substvar_1693_ _substvar_585_)) (?v_2 (= _substvar_1695_ _substvar_693_)) (?v_12 (= _substvar_725_ (_ bv1 1))) (?v_15 (= _substvar_727_ ((_ extract 16 16) _substvar_719_))) (?v_16 ((_ extract 15 12) _substvar_719_)) (?v_17 ((_ extract 11 8) _substvar_719_)) (?v_18 ((_ extract 7 4) _substvar_719_)) (?v_19 ((_ extract 3 0) _substvar_719_)) (?v_28 (= _substvar_730_ _substvar_637_)) (?v_23 (= _substvar_731_ (_ bv1 1))) (?v_21 (= _substvar_589_ _substvar_585_)) (?v_22 (= _substvar_703_ _substvar_693_)) (?v_32 ((_ extract 16 13) _substvar_640_)) (?v_33 (= _substvar_736_ ((_ extract 12 12) _substvar_640_))) (?v_35 ((_ extract 7 4) _substvar_640_)) (?v_36 ((_ extract 3 0) _substvar_640_))) (and ?v_8 _substvar_1175_ ?v_8 (ite true (and ?v_12 true ?v_1 ?v_2) false) (= _substvar_719_ (concat (concat (concat (concat _substvar_725_ _substvar_1695_) _substvar_1693_) _substvar_1691_) _substvar_638_)) (and ?v_15 (= _substvar_700_ ?v_16) (= _substvar_685_ ?v_17) (= (_ bv0 4) ?v_18) (= _substvar_641_ ?v_19)) (ite (= _substvar_727_ (_ bv1 1)) (= _substvar_357_ (bvadd (bvadd (bvadd _substvar_641_ (_ bv0 4)) _substvar_685_) _substvar_700_)) (= _substvar_357_ (bvor (bvor (bvor _substvar_641_ (_ bv0 4)) _substvar_685_) _substvar_700_))) ?v_28 (and ?v_23 true ?v_21 ?v_22) ?v_28 true (= _substvar_640_ (concat (concat (concat (concat _substvar_730_ _substvar_731_) (_ bv0 4)) _substvar_589_) _substvar_703_)) (ite true (and (= _substvar_734_ ?v_32) ?v_33 (= _substvar_1669_ (_ bv0 4)) (= _substvar_591_ ?v_35) (= _substvar_706_ ?v_36)) false) (ite (= _substvar_736_ (_ bv1 1)) (= (_ bv0 4) (bvadd (bvadd (bvadd _substvar_734_ _substvar_1669_) _substvar_591_) _substvar_706_)) (= (_ bv0 4) _substvar_1665_)) true true true true true true true true true true true _substvar_1113_ true _substvar_1445_ (or false false (not (= _substvar_357_ (_ bv0 4))) false false false))))
(check-sat)
(exit)
